70 715
1 23 16 47 37 58 50 64 65 56 51 52 10 5 53 6 41 42 18 4 2 7 32 3 44 68 43 17 21 34 12 60 33 67 11 48 54 62 39 25 45 61 40 9 27 46 30 20 14 28 8 26 49 55 19 24 15 57 63 66 22 59 38 31 69 35 70 13 29 36 
